(declare-fun var0 () String)
(assert (RegexIn var0 (RegexConcat (RegexStar (RegexPlus (Str2Reg "kkk"))) (RegexConcat (RegexPlus (RegexPlus (Str2Reg "j"))) (RegexConcat (RegexPlus (RegexStar (Str2Reg "iii"))) (RegexConcat (RegexUnion (RegexStar (Str2Reg "g")) (RegexPlus (Str2Reg "h"))) (RegexConcat (RegexPlus (RegexStar (Str2Reg "f"))) (RegexConcat (RegexUnion (RegexPlus (Str2Reg "cc")) (RegexUnion (Str2Reg "dd") (Str2Reg "eee"))) (RegexConcat (RegexPlus (RegexStar (Str2Reg "b"))) (RegexConcat (RegexPlus (RegexUnion (Str2Reg "99") (Str2Reg "aaa"))) (RegexConcat (RegexStar (RegexStar (Str2Reg "888"))) (RegexConcat (RegexStar (RegexUnion (Str2Reg "66") (Str2Reg "7"))) (RegexConcat (RegexUnion (RegexPlus (Str2Reg "44")) (RegexStar (Str2Reg "555"))) (RegexConcat (RegexUnion (RegexPlus (Str2Reg "2")) (RegexStar (Str2Reg "33"))) (RegexPlus (RegexUnion (Str2Reg "000") (Str2Reg "1")))))))))))))))))
(check-sat)